Route #1: 29 21 30 24 13 46 4 11 42 9 34
Route #2: 7 3 20 26 39 8 15 27
Route #3: 40 45 28 10 33 2
Route #4: 32 36 37 19 25 38 22
Route #5: 23 43 31 5 1 6
Route #6: 14 17 16 47 41
Route #7: 18 35 44 12
Cost 1120.4510308135727